(set-info :smt-lib-version 2.6)
(set-logic QF_S)
(set-info :source |
Generated by: Oliver Markgraf, Hongjian Jiang, Daniel Stan, Anthony W. Lin, Philipp Ruemmer
Generated on: 2025-04-08
Application: Using String Solvers to solve RMC problems encoded as CHC over Strings
Target solver: cvc5, OSTRICH, Z3, Z3alpha, Z3-noodler
Time limit: 60.0
Benchmarks are extracted by running HornStr https://arg-git.informatik.uni-kl.de/pub/string-chc-lib on all benchmarks
provided in the repository and gathering the string queries sent to the string solvers.
|)
(set-info :license "https://creativecommons.org/licenses/by/4.0/")
(set-info :category "industrial")
(set-info :status unknown)
(declare-fun varout () String)
(assert (let ((a!1 (re.* (re.union (re.union (str.to_re "0") (str.to_re "1"))
                           (str.to_re "2")))))
  (str.in_re varout a!1)))
(declare-fun varin () String)
(assert (let ((a!1 (re.* (re.union (re.union (str.to_re "0") (str.to_re "1"))
                           (str.to_re "2")))))
  (str.in_re varin a!1)))
(declare-fun X () String)
(declare-fun isin () Bool)
(declare-fun isout () Bool)
(assert (let ((a!1 (re.++ (re.++ (re.* (str.to_re "0")) (str.to_re "10"))
                  (re.* (str.to_re "0")))))
  (or (and (str.in_re X a!1) true (= X varin) isin (not isout)))))
(assert (let ((a!1 (re.union (str.to_re "")
                     (re.++ (str.to_re "1") (re.* (str.to_re "1")))))
      (a!2 (re.++ (str.to_re "1")
                  (re.++ (re.* (str.to_re "1")) (str.to_re "0"))))
      (a!4 (re.++ (str.to_re "1")
                  (re.++ (re.* (str.to_re "1")) (str.to_re "2"))))
      (a!7 (re.* (re.union (re.union (str.to_re "0") (str.to_re "1"))
                           (str.to_re "2"))))
      (a!15 (re.++ (str.to_re "0")
                   (re.++ (re.* (str.to_re "0")) (str.to_re "1")))))
(let ((a!3 (re.union (re.++ (re.* (str.to_re "1")) a!1)
                     (re.++ (re.* (str.to_re "1"))
                            (re.union (str.to_re "0") a!2))))
      (a!5 (re.++ (re.++ (re.* (str.to_re "1")) (re.union (str.to_re "0") a!2))
                  (str.to_re "2")))
      (a!8 (re.++ (re.union (re.union (str.to_re "0") (str.to_re "1"))
                            (str.to_re "2"))
                  a!7))
      (a!10 (re.++ (re.++ (re.* (str.to_re "1")) (re.union (str.to_re "0") a!2))
                   (str.to_re "0")))
      (a!14 (re.++ (re.++ (re.* (str.to_re "1")) (re.union (str.to_re "0") a!2))
                   (str.to_re "1"))))
(let ((a!6 (re.union (re.++ (re.* (str.to_re "1"))
                            (re.union (str.to_re "2") a!4))
                     a!5))
      (a!11 (re.++ (str.to_re "2") (re.++ a!7 (re.union (str.to_re "") a!8))))
      (a!16 (re.++ a!10
                   (re.++ (re.* (str.to_re "0"))
                          (re.union (str.to_re "1") a!15))))
      (a!17 (re.++ (re.union (str.to_re "1") (str.to_re "2"))
                   (re.++ a!7 (re.union (str.to_re "") a!8)))))
(let ((a!9 (re.++ a!6 (re.++ a!7 (re.union (str.to_re "") a!8))))
      (a!12 (re.++ (str.to_re "0") (re.++ (re.* (str.to_re "0")) a!11)))
      (a!18 (re.++ (str.to_re "0") (re.++ (re.* (str.to_re "0")) a!17))))
(let ((a!13 (re.++ a!10 (re.++ (re.* (str.to_re "0")) (re.union a!11 a!12))))
      (a!19 (re.++ (re.union a!14 a!16)
                   (re.++ (re.* (str.to_re "0")) (re.union a!17 a!18)))))
  (str.in_re varin (re.union (re.union (re.union a!3 a!9) a!13) a!19))))))))
(check-sat)
(exit)
